
Welcome to IBM(R) ILOG(R) CPLEX(R) Interactive Optimizer 22.1.1.0
  with Simplex, Mixed Integer & Barrier Optimizers
5725-A06 5725-A29 5724-Y48 5724-Y49 5724-Y54 5724-Y55 5655-Y21
Copyright IBM Corp. 1988, 2022.  All Rights Reserved.

Type 'help' for a list of available commands.
Type 'help' followed by a command name for more
information on commands.

CPLEX> Selected objective sense:  MINIMIZE
Selected objective  name:  00000000
Selected RHS        name:  RHS1
Selected bound      name:  BOUND
Problem 'ee.mps' read.
Read time = 0.03 sec. (3.14 ticks)
CPLEX> New value for time limit in seconds: 7200
CPLEX> New value for parallel optimization mode: -1
CPLEX> New value for default parallel thread count: 40
CPLEX> New value for mixed integer optimality gap tolerance: 1e-13
CPLEX> Version identifier: 22.1.1.0 | 2022-11-28 | 9160aff4d
CPXPARAM_Threads                                 40
CPXPARAM_Parallel                                -1
CPXPARAM_TimeLimit                               7200
CPXPARAM_MIP_Tolerances_MIPGap                   1e-13
Found incumbent of value 0.000000 after 0.00 sec. (0.31 ticks)
Tried aggregator 2 times.
MIP Presolve eliminated 181 rows and 2745 columns.
MIP Presolve modified 5862 coefficients.
Aggregator did 713 substitutions.
Reduced MIP has 3623 rows, 7739 columns, and 28643 nonzeros.
Reduced MIP has 7739 binaries, 0 generals, 0 SOSs, and 0 indicators.
Presolve time = 0.07 sec. (68.54 ticks)
Probing time = 0.03 sec. (5.29 ticks)
Tried aggregator 1 time.
Detecting symmetries...
Reduced MIP has 3623 rows, 7739 columns, and 28643 nonzeros.
Reduced MIP has 7739 binaries, 0 generals, 0 SOSs, and 0 indicators.
Presolve time = 0.03 sec. (21.83 ticks)
Probing time = 0.02 sec. (5.10 ticks)
Clique table members: 18551.
MIP emphasis: balance optimality and feasibility.
MIP search method: dynamic search.
Parallel mode: opportunistic, using up to 40 threads.
Root relaxation solution time = 0.10 sec. (91.28 ticks)

        Nodes                                         Cuts/
   Node  Left     Objective  IInf  Best Integer    Best Bound    ItCnt     Gap

*     0+    0                            0.0000  -1.31000e+13              --- 
*     0+    0                      -5.39000e+12  -1.31000e+13           143.04%
      0     0  -1.30900e+13    66  -5.39000e+12  -1.30900e+13     2270  142.86%
*     0+    0                      -1.30900e+13  -1.30900e+13             0.00%
*     0+    0                      -1.30900e+13  -1.30900e+13             0.00%
      0     0  -1.30900e+13    65  -1.30900e+13      Cuts: 57     2777    0.00%
      0     0  -1.30900e+13   105  -1.30900e+13      Cuts: 40     2960    0.00%
*     0+    0                      -1.30900e+13  -1.30900e+13             0.00%
      0     0  -1.30900e+13   146  -1.30900e+13      Cuts: 49     3096    0.00%
*     0+    0                      -1.30900e+13  -1.30900e+13             0.00%
*     0+    0                      -1.30900e+13  -1.30900e+13             0.00%
      0     0  -1.00000e+75     0  -1.30900e+13  -1.30900e+13     3096    0.00%

Repeating presolve.
Tried aggregator 2 times.
MIP Presolve eliminated 1671 rows and 3820 columns.
MIP Presolve added 34 rows and 0 columns.
MIP Presolve modified 77 coefficients.
Aggregator did 399 substitutions.
Reduced MIP has 1587 rows, 3485 columns, and 12474 nonzeros.
Reduced MIP has 3485 binaries, 0 generals, 0 SOSs, and 0 indicators.
Presolve time = 0.05 sec. (53.89 ticks)
Probing time = 0.02 sec. (3.68 ticks)
Tried aggregator 1 time.
Detecting symmetries...
Reduced MIP has 1587 rows, 3485 columns, and 12474 nonzeros.
Reduced MIP has 3485 binaries, 0 generals, 0 SOSs, and 0 indicators.
Presolve time = 0.02 sec. (8.84 ticks)
Represolve time = 0.10 sec. (79.13 ticks)
Probing time = 0.02 sec. (3.65 ticks)
Clique table members: 8305.
MIP emphasis: balance optimality and feasibility.
MIP search method: dynamic search.
Parallel mode: opportunistic, using up to 40 threads.
Root relaxation solution time = 0.06 sec. (38.35 ticks)

        Nodes                                         Cuts/
   Node  Left     Objective  IInf  Best Integer    Best Bound    ItCnt     Gap

*     0+    0                      -1.30900e+13  -1.30900e+13             0.00%
      0     0  -1.30900e+13    73  -1.30900e+13  -1.30900e+13     4304    0.00%
      0     0  -1.30900e+13   119  -1.30900e+13      Cuts: 52     4545    0.00%
      0     0  -1.30900e+13   153  -1.30900e+13      Cuts: 71     4717    0.00%
      0     2  -1.30900e+13   145  -1.30900e+13  -1.30900e+13     4717    0.00%
Elapsed time = 2.22 sec. (1353.14 ticks, tree = 0.02 MB, solutions = 8)
*   661    43      integral     0  -1.30900e+13  -1.30900e+13   117495    0.00%
    942    66  -1.30900e+13    82  -1.30900e+13  -1.30900e+13    31388    0.00%
   2317    40        cutoff        -1.30900e+13  -1.30900e+13   112435    0.00%

GUB cover cuts applied:  1
Clique cuts applied:  23
Cover cuts applied:  451
Flow cuts applied:  9
Mixed integer rounding cuts applied:  5
Zero-half cuts applied:  22
Lift and project cuts applied:  9
Gomory fractional cuts applied:  22

Root node processing (before b&c):
  Real time             =    1.83 sec. (1352.84 ticks)
Parallel b&c, 40 threads:
  Real time             =    1.61 sec. (641.43 ticks)
  Sync time (average)   =    0.64 sec.
  Wait time (average)   =    0.00 sec.
                          ------------
Total (root+branch&cut) =    3.45 sec. (1994.27 ticks)

Solution pool: 13 solutions saved.

MIP - Integer optimal solution:  Objective = -1.3089999689e+13
Solution time =    3.53 sec.  Iterations = 156556  Nodes = 2586
Deterministic time = 1994.30 ticks  (564.77 ticks/sec)

CPLEX> Solution 'p14' written to file 'ee.sol'.
CPLEX> 